Results/Experiment 1 Results/New Benchmark/RES_40/output_p1_0.00_p2_0.00_n_40_05.txt
solutions: 5184 nodes: 9418  modelTime: 109  solveTime: 133  totalTime: 245  modelSize: 7389  readTime: 3 matchingSize: 20
